42
Route #1: 1 19 32 
Route #2: 2 14 
Route #3: 3 22 
Route #4: 4 12 28 
Route #5: 5 13 
Route #6: 6 15 
Route #7: 7 21 31 
Route #8: 8 20 25 
Route #9: 9 23 
Route #10: 10 17 
Route #11: 11 33 
Route #12: 16 37 
Route #13: 18 27 35 
Route #14: 24 30 38 
Route #15: 26 34 
Route #16: 29 58 
Route #17: 36 47 71 
Route #18: 39 50 62 
Route #19: 40 68 
Route #20: 41 57 70 
Route #21: 42 54 81 
Route #22: 43 60 
Route #23: 44 64 
Route #24: 45 51 65 
Route #25: 46 55 
Route #26: 48 59 78 
Route #27: 49 61 72 
Route #28: 52 66 84 
Route #29: 53 67 75 
Route #30: 56 
Route #31: 63 88 
Route #32: 69 90 
Route #33: 73 87 
Route #34: 74 89 96 
Route #35: 76 100 
Route #36: 77 94 
Route #37: 79 91 
Route #38: 80 95 
Route #39: 82 93 
Route #40: 83 86 98 
Route #41: 85 97 
Route #42: 92 99 
Cost 42.0
